# Solution for model r3_t9_m6_3
# Finished Task: 9 / 9
# Makespan: 525.0, Total Distance: 235.0, Total Time: 1.9003
# R O S F
0 0 -1 6.0 6.0
1 1 4 102.0 102.0
2 2 3 78.0 78.0
3 2 10 151.0 190.0
4 1 7 190.0 229.0
5 2 8 294.0 327.0
6 1 -1 502.0 525.0
7 1 9 263.0 294.0
8 2 11 383.0 416.0
9 1 6 350.0 383.0
10 2 5 228.0 263.0
11 2 -1 466.0 502.0
